32	0

0	3	2	3	5
4	2	4	10
2	2	4	10
7	1	6
10	2	6	10
3	1	7
1	1	8
1	2	9	11
7	2	12	13
7	1	11
3	2	12	13
8	1	14
6	2	14	15
8	1	16
3	1	16
5	1	17
3	2	18	20
7	1	19
2	1	21
9	1	21
4	1	22
10	1	23
7	1	24
1	1	25
5	2	26	28
1	1	27
5	1	29
5	1	29
10	1	30
10	1	31
5	1	32
0	0
